c random formula
p cnf 10 30
-2 9 0
-5 -4 0
-2 8 0
-10 -5 0
1 -3 0
4 7 0
-7 1 0
6 -10 0
7 6 0
-4 -10 0
-7 -5 0
-2 8 0
5 -1 0
1 -2 0
-4 2 0
10 -9 0
-1 9 0
9 5 0
-1 -9 0
-6 -4 0
9 6 0
4 -1 0
2 8 0
-9 -3 0
-6 -5 0
5 -10 0
10 9 0
-10 7 0
7 2 0
1 -3 0
